c ren 1 -> 1
c ren 2 -> 2
c ren 3 -> 3
c ren 4 -> 4
c ren 5 -> 5
c ren 6 -> 6
c ren 7 -> 7
c ren 8 -> 8
c ren 9 -> 9
c ren 10 -> 10
c ren 11 -> 11
c ren 12 -> 12
c ren 13 -> 13
c ren 14 -> 14
c ren 15 -> 15
c ren 16 -> 16
c ren 17 -> 17
c ren 18 -> 18
c ren 19 -> 19
c ren 20 -> 20
c ren 21 -> 21
c ren 22 -> 22
c ren 23 -> 23
c ren 24 -> 24
c ren 25 -> 25
c ren 26 -> 26
c ren 27 -> 27
c ren 28 -> 28
c ren 29 -> 29
c ren 30 -> 30
c ren 31 -> 31
c ren 32 -> 32
c ren 33 -> 33
c ren 34 -> 34
c ren 35 -> 35
c ren 36 -> 36
c ren 37 -> 37
c ren 38 -> 38
c ren 39 -> 39
c ren 40 -> 40
c ren 41 -> 41
c ren 42 -> 42
c ren 43 -> 43
c ren 44 -> 44
c ren 45 -> 45
c ren 46 -> 46
c ren 47 -> 47
c ren 48 -> 48
c ren 49 -> 49
c ren 50 -> 50
c ren 51 -> 51
c ren 52 -> 52
c ren 53 -> 53
c ren 54 -> 54
c ren 55 -> 55
c ren 56 -> 56
c ren 57 -> 57
c ren 58 -> 58
c ren 59 -> 59
c ren 60 -> 60
c ren 61 -> 61
c ren 62 -> 62
c ren 63 -> 63
c ren 64 -> 64
c ren 65 -> 65
c ren 66 -> 66
c ren 67 -> 67
c ren 70 -> 68
c ren 73 -> 69
c ren 88 -> 70
c ren 97 -> 71
c ren 100 -> 72
c ren 103 -> 73
c ren 109 -> 74
c ren 111 -> 75
c ren 118 -> 76
c ren 119 -> 77
c ren 130 -> 78
c ren 141 -> 79
c ren 154 -> 80
c ren 157 -> 81
c ren 160 -> 82
c ren 169 -> 83
c ren 171 -> 84
c ren 178 -> 85
c ren 191 -> 86
c ren 196 -> 87
c ren 200 -> 88
c ren 202 -> 89
c ren 203 -> 90
c ren 204 -> 91
c ren 205 -> 92
c ren 206 -> 93
c ren 207 -> 94
c ren 208 -> 95
c ren 209 -> 96
c ren 210 -> 97
c ren 211 -> 98
c ren 212 -> 99
c ren 213 -> 100
c ren 231 -> 101
c ren 242 -> 102
c ren 249 -> 103
c ren 314 -> 104
c ren 315 -> 105
c ren 316 -> 106
c ren 317 -> 107
c ren 318 -> 108
c ren 319 -> 109
c ren 320 -> 110
c ren 321 -> 111
c ren 322 -> 112
c ren 323 -> 113
c ren 324 -> 114
c ren 325 -> 115
c ren 326 -> 116
c ren 327 -> 117
c ren 328 -> 118
c ren 329 -> 119
c ren 330 -> 120
c ren 331 -> 121
c ren 332 -> 122
c ren 333 -> 123
c ren 334 -> 124
c ren 335 -> 125
c ren 336 -> 126
c ren 337 -> 127
c ren 338 -> 128
c ren 339 -> 129
c ren 340 -> 130
c ren 341 -> 131
c ren 342 -> 132
c ren 343 -> 133
c ren 344 -> 134
c ren 345 -> 135
c ren 346 -> 136
c ren 347 -> 137
p cnf 137 358
a 1 2 3 4 5 6 7 8 9 10 11 12 13 14 15 16 17 18 19 20 21 22 23 24 25 26 27 28 29 30 31 32 33 34 35 36 37 38 39 40 41 42 43 44 45 46 47 48 49 50 51 52 53 54 55 56 57 58 59 60 61 62 63 64 65 66 0
d 89 51 52 53 54 55 56 57 58 0
d 90 51 52 53 54 55 56 57 58 0
d 91 33 34 35 36 37 38 39 40 0
d 92 33 34 35 36 37 38 39 40 0
d 93 33 34 35 36 37 38 39 40 0
d 94 33 34 35 36 37 38 39 40 0
d 95 41 42 0
d 96 43 44 45 46 47 48 49 50 0
d 97 43 44 45 46 47 48 49 50 0
d 98 59 60 61 62 63 64 65 66 0
d 99 59 60 61 62 63 64 65 66 0
d 100 59 60 61 62 63 64 65 66 0
e 67 68 69 70 71 72 73 74 75 76 77 78 79 80 81 82 83 84 85 86 87 88 101 102 103 104 105 106 107 108 109 110 111 112 113 114 115 116 117 118 119 120 121 122 123 124 125 126 127 128 129 130 131 132 133 134 135 136 137 0
-11 -67 0
27 -67 0
9 10 12 -27 -70 0
-51 -67 -123 0
-10 -68 0
26 -68 0
10 -26 68 0
9 11 -26 -28 -70 0
-68 -88 0
-12 28 67 68 69 70 0
-9 -69 0
25 -69 0
-25 -57 -129 0
-69 76 -86 -87 0
12 -54 -126 0
11 51 67 -123 0
-11 27 70 76 -86 -87 0
9 -68 -70 0
-9 25 70 0
10 11 12 -25 -70 0
90 97 99 -102 -103 0
10 11 -25 -28 -70 0
-68 70 76 -86 -87 0
9 -57 -129 0
-1 -3 19 78 -79 -80 0
11 -55 -127 0
9 11 12 -26 -70 0
-67 -88 0
-9 25 57 -129 0
9 53 69 -125 0
-10 26 56 -128 0
32 66 104 105 106 107 108 109 110 111 112 113 114 115 116 117 118 119 120 121 122 123 124 125 126 127 128 129 130 131 132 133 134 135 136 137 0
12 -28 -58 -130 0
12 28 58 -130 0
-12 28 70 76 -86 -87 0
12 -28 -88 0
10 -56 -128 0
-28 -54 -126 0
-21 -94 102 0
-53 -69 -125 0
29 84 85 0
-80 -88 0
-7 -71 0
23 -71 0
7 -23 71 0
-71 76 -86 -87 0
-6 -72 0
22 -72 0
6 -22 72 0
-72 -88 0
-5 -73 0
21 -73 0
5 -21 73 0
-73 -86 -87 0
72 73 74 76 0
5 8 -74 -75 91 101 0
7 74 0
-23 74 0
6 75 0
-22 75 0
5 -72 -76 0
-5 21 76 0
-73 -88 0
-21 91 -94 101 0
-72 76 -86 -87 0
8 -21 -74 -75 102 0
-73 -76 0
-71 -88 0
74 76 -86 -87 0
-5 21 -102 0
75 -88 0
-8 -77 0
24 -77 0
8 -24 77 0
-8 24 92 93 94 -102 0
75 76 -86 -87 0
73 75 76 0
76 -77 -86 -87 0
13 -29 -85 0
-70 71 72 73 77 80 87 0
-19 -47 -119 0
1 17 45 -117 0
3 -17 -19 -79 80 0
-2 -78 0
18 -78 0
-2 18 -79 0
9 -26 -27 -28 -70 0
1 -17 -45 -117 0
-17 -78 86 0
-21 -24 -74 -75 102 0
4 -46 -118 0
-16 28 29 67 68 69 70 71 72 73 -75 76 77 80 81 82 85 -86 88 0
2 79 0
-18 79 0
1 3 -19 -79 80 0
-1 17 -86 0
-1 17 -80 0
-3 4 17 -19 20 78 -79 -80 0
-44 -78 -116 0
1 -17 86 0
3 -47 -119 0
-3 19 47 -119 0
-89 90 97 -102 -103 0
-3 19 -79 -80 86 0
-29 -81 -84 -85 0
-3 19 -43 -115 0
-20 -46 -118 0
1 3 4 -79 86 0
3 -17 -20 -79 86 0
-44 79 -116 0
-4 -20 50 -122 0
-3 -17 19 -79 80 -86 0
-1 3 -4 19 20 78 -86 0
4 -20 -50 -122 0
4 -79 -80 86 0
-17 -49 -121 0
1 -3 19 -79 80 -86 0
1 -49 -121 0
3 -19 -43 -115 0
1 3 4 -20 -79 80 0
1 4 -19 -79 86 0
3 -4 17 19 20 78 -86 0
1 -19 -20 -79 86 0
-80 -86 -87 0
-15 -81 0
31 -81 0
-15 31 -83 0
66 -81 104 105 106 107 108 109 110 111 112 113 114 115 116 117 118 119 120 121 122 123 124 125 126 127 128 129 130 131 132 133 134 135 136 137 0
10 -25 -67 -70 0
-14 -82 0
30 -82 0
-14 30 -84 0
-82 -88 0
66 84 104 105 106 107 108 109 110 111 112 113 114 115 116 117 118 119 120 121 122 123 124 125 126 127 128 129 130 131 132 133 134 135 136 137 0
-13 -29 61 -133 0
13 -29 66 104 105 106 107 108 109 110 111 112 113 114 115 116 117 118 119 120 121 122 123 124 125 126 127 128 129 130 131 132 133 134 135 136 137 0
-29 -65 -137 0
-13 29 66 104 105 106 107 108 109 110 111 112 113 114 115 116 117 118 119 120 121 122 123 124 125 126 127 128 129 130 131 132 133 134 135 136 137 0
29 82 83 85 0
-16 32 -88 0
15 83 0
-31 83 0
14 84 0
-30 84 0
-13 82 83 85 0
-13 29 85 0
9 -26 -67 -70 0
74 -88 0
17 79 -86 0
13 -65 -137 0
1 4 -19 -20 -79 80 0
-77 -88 0
-13 28 32 67 68 69 70 71 72 73 76 77 80 81 82 85 -86 88 0
-81 -88 0
66 83 104 105 106 107 108 109 110 111 112 113 114 115 116 117 118 119 120 121 122 123 124 125 126 127 128 129 130 131 132 133 134 135 136 137 0
9 10 -27 -28 -70 0
-12 -28 58 -130 0
-13 29 65 -137 0
-12 29 32 67 68 69 70 71 72 73 -74 76 77 80 81 82 85 -86 88 0
84 -88 0
-60 84 -132 0
-59 83 -131 0
13 29 61 -133 0
16 -32 -88 0
13 16 29 -32 -66 81 82 -83 -84 104 105 106 107 108 109 110 111 112 113 114 115 116 117 118 119 120 121 122 123 124 125 126 127 128 129 130 131 132 133 134 135 136 137 0
83 -88 0
-85 -88 0
97 -101 -102 -103 0
13 -82 -85 0
-8 24 76 -86 -87 0
-3 17 19 78 -79 -80 0
1 -78 80 0
86 -88 0
70 76 85 -86 -87 0
-20 -79 -80 86 0
-12 -13 32 67 68 69 70 71 72 73 -74 76 77 80 81 82 85 -86 88 0
-70 -88 0
-76 -88 0
86 87 0
13 -29 -61 -133 0
66 -82 104 105 106 107 108 109 110 111 112 113 114 115 116 117 118 119 120 121 122 123 124 125 126 127 128 129 130 131 132 133 134 135 136 137 0
-1 -3 -4 -20 78 -79 -80 0
-21 -72 -76 0
60 82 -84 -132 0
-11 27 55 -127 0
-16 29 32 81 82 85 0
5 8 -74 -75 102 0
-89 97 99 -102 -103 0
5 -24 -74 -75 -76 0
-7 23 -74 0
-6 22 -75 0
8 -21 -74 -75 -76 0
5 -74 -75 91 -92 101 0
4 -17 -19 -79 86 0
5 -94 102 0
74 93 94 -102 0
3 19 43 -115 0
-8 24 71 72 73 76 0
5 -71 -75 -76 0
8 -21 -74 -75 91 101 0
5 -74 -75 -92 102 0
5 8 -74 -75 -76 0
5 91 -94 101 0
5 -75 91 -93 101 0
75 94 -102 0
-1 -17 45 -117 0
5 -75 -93 102 0
-91 -101 0
-1 -3 4 20 78 -79 -80 0
-89 -96 99 -102 -103 0
-88 102 -104 0
90 97 -100 -102 -103 0
-89 90 -96 -102 -103 0
-5 21 -101 0
-13 84 85 0
-89 -96 -100 -102 -103 0
96 -97 103 0
88 89 90 -96 -97 98 101 -102 -104 0
90 -96 -100 -102 -103 0
90 -96 99 -102 -103 0
-96 -101 -102 -103 0
-88 -96 97 -104 0
-88 96 -97 -104 0
89 -90 -97 101 103 0
89 -97 -99 100 101 103 0
-97 102 103 0
-89 97 -100 -102 -103 0
-88 -89 90 -104 0
-90 96 -99 100 101 103 0
-88 -101 -104 0
-1 4 19 20 78 -79 -80 0
2 -18 78 0
1 3 -19 -79 86 0
-17 -78 80 0
-3 -19 43 -115 0
11 -27 67 0
9 10 -67 -70 0
9 -25 69 0
15 -31 81 0
14 -30 82 0
28 29 32 67 68 69 70 71 72 73 76 77 80 81 82 85 -86 88 0
-13 -16 32 81 82 85 0
16 -29 -83 -84 -85 0
-32 -62 -134 0
59 81 -83 -131 0
-16 32 62 -134 0
-12 -13 -16 67 68 69 70 71 72 73 76 77 80 81 82 85 -86 88 0
-59 -81 -131 0
-60 -82 -132 0
-90 -97 -99 100 101 103 0
-88 89 -90 -104 0
-96 97 -103 0
89 -90 96 101 103 0
96 102 103 0
88 -89 -90 -96 -97 98 101 -102 -104 0
89 96 -99 100 101 103 0
87 -103 -104 0
-87 103 -104 0
88 89 90 96 97 98 101 -102 -104 0
-88 -98 -104 0
-8 -33 -105 0
-25 -26 -67 -70 0
-25 53 69 -125 0
8 33 -105 0
-24 -34 -106 0
24 34 -106 0
-7 -35 -107 0
10 12 -25 -27 -70 0
7 35 -107 0
-23 -36 -108 0
23 36 -108 0
-6 -37 -109 0
12 -25 -26 -27 -70 0
6 37 -109 0
-22 -38 -110 0
-13 16 -29 -32 -66 81 82 -83 -84 104 105 106 107 108 109 110 111 112 113 114 115 116 117 118 119 120 121 122 123 124 125 126 127 128 129 130 131 132 133 134 135 136 137 0
-21 -24 -74 -75 91 101 0
22 38 -110 0
-5 -39 -111 0
-12 -16 29 67 68 69 70 71 72 73 76 77 80 81 82 85 -86 88 0
-17 -19 -20 -79 86 0
5 39 -111 0
-21 -40 -112 0
3 4 -17 -20 -79 80 0
21 40 -112 0
-10 -41 -113 0
-21 -71 -75 -76 0
10 41 -113 0
-26 -42 -114 0
-25 -26 -27 -28 -70 0
26 42 -114 0
3 -17 -19 -79 86 0
-4 17 19 -20 78 -79 -80 0
3 4 17 19 20 78 -79 -80 0
44 78 -79 -116 0
-1 79 -86 0
1 -17 80 0
-3 -4 17 -19 20 78 -86 0
-3 -4 17 -20 78 -79 -80 0
4 20 50 -122 0
-1 -4 19 -20 78 -79 -80 0
-4 20 46 -118 0
-4 20 -50 -122 0
-1 -3 -4 -19 20 78 -86 0
-48 -79 -120 0
-21 -74 -75 91 -92 101 0
13 -32 -83 -84 -85 0
48 79 -120 0
1 -78 86 0
-29 -32 -83 -84 -85 0
3 4 -17 -79 86 0
-1 17 -45 -117 0
-1 17 49 -121 0
1 3 -20 -79 86 0
9 12 -26 -27 -70 0
-67 70 76 -86 -87 0
-52 -95 -124 0
11 -25 -26 -28 -70 0
-21 -75 91 -93 101 0
52 95 -124 0
-69 -88 0
28 67 68 69 71 72 73 77 80 -85 87 0
-12 67 68 69 71 72 73 77 80 -85 87 0
-12 28 54 -126 0
-12 28 -58 -130 0
9 10 11 12 -70 0
10 -25 -27 -28 -70 0
-11 27 68 69 70 0
9 10 11 -28 -70 0
-21 -75 -93 102 0
-10 26 69 70 0
-25 -68 -70 0
-26 -56 -128 0
-27 -55 -127 0
-9 25 -53 -125 0
5 -24 -74 -75 91 101 0
-11 27 -51 -123 0
-16 66 104 105 106 107 108 109 110 111 112 113 114 115 116 117 118 119 120 121 122 123 124 125 126 127 128 129 130 131 132 133 134 135 136 137 0
-76 80 87 0
12 -28 70 76 -86 -87 0
-29 -82 -85 0
-13 -16 28 67 68 69 70 71 72 73 76 77 80 81 82 85 -86 88 0
13 16 -83 -84 -85 0
-27 51 67 -123 0
16 -62 -134 0
-63 -83 -135 0
11 12 -25 -26 -70 0
63 83 -135 0
-64 -84 -136 0
-21 -74 -75 -92 102 0
5 -24 -74 -75 102 0
64 84 -136 0
13 -81 -84 -85 0
-21 -24 -74 -75 -76 0
4 -17 -19 -20 -79 80 0
-13 29 -61 -133 0
88 -89 -90 96 97 98 101 -102 -104 0
13 -29 -88 0
